\ENCODING=ISO-8859-1
\Problem name: ilog.cplex

Minimize
 obj1: 10000 x1 + x2 + 10000 x3 + x4 + x5 + 10000 x6 + x7 + 10000 x8 + 10000 x9
       + x10 + 10000 x11 + 100 x12 + 50 x13 + 10000 x14 + 100 x15 + 10000 x16
Subject To
 c1:  x2 + x3 + x4 - x5 - x9 - x13  = 0
 c2:  - x2 + x5 + x7 + x8 - x10 - x14  = 0
 c3:  - x3 - x7 + x9 + x10 + x12 - x15  = 0
 c4:  - x4 - x8 - x12 + x13 + x14 + x15  = 0
 c5:  x17  = 1
 c6:  x18  = 1
 c7:  x1 + x2 + x3 + x4  = 1
 c8:  - x2 - x6 - x10 - x14 + x17 <= 0
 c9:  - x3 - x7 - x11 - x15 + x18 <= 0
 c10: 20 x17 + 20 x18 <= 100
 c11: 3 x7 + x19 - x20 <= 2
 c12: 3 x8 + x19 - x21 <= 2
 c13: 3 x10 - x19 + x20 <= 2
 c14: 3 x12 + x20 - x21 <= 2
 c15: 3 x14 - x19 + x21 <= 2
 c16: 3 x15 - x20 + x21 <= 2
Bounds
 0 <= x1 <= 1
 0 <= x2 <= 1
 0 <= x3 <= 1
 0 <= x4 <= 1
 0 <= x5 <= 1
 0 <= x6 <= 1
 0 <= x7 <= 1
 0 <= x8 <= 1
 0 <= x9 <= 1
 0 <= x10 <= 1
 0 <= x11 <= 1
 0 <= x12 <= 1
 0 <= x13 <= 1
 0 <= x14 <= 1
 0 <= x15 <= 1
 0 <= x16 <= 1
 0 <= x17 <= 1
 0 <= x18 <= 1
 1 <= x19 <= 3
 1 <= x20 <= 3
 1 <= x21 <= 3
Binaries
 x1  x2  x3  x4  x5  x6  x7  x8  x9  x10  x11  x12  x13  x14  x15  x16  x17 
 x18 
Generals
 x19  x20  x21 
End
